ref044                                  
   1.00000000000000     
    10.6405515494062666    0.7867971677924998    1.8887642353188332
     0.7557653241713739    9.4448112036179719    0.2007044992279591
     1.8684442674231723    0.3050166924214138   10.0176122384550794
   H   F    P    H   H   H 
    12     12     8     1    10     5
Direct
  0.6152874955616177  0.8696496420097495  0.8471766659295671
  0.7261715325641463  0.1828136283157127  0.2276190943353819
  0.3307742448438765  0.7925470784166500  0.1795556561440757
  0.7502023111098201  0.3060098399748352  0.9692515752823907
  0.8934501473939792  0.8944741502581054  0.9474795271689015
  0.1897468933827611  0.7062389788129840  0.0374888655258403
  0.2594762637541379  0.0768640645418799  0.9586221790704378
  0.0212947252586494  0.7775371471464742  0.3049730168576399
 -0.0067545135014427  0.6181360358370716  0.6206233167031304
  0.0697029508682815  0.3133561384624895  0.5644033583529435
  0.2426068528461284  0.5240135086073114  0.3216287355067650
  0.7888329138740885  0.4862768931498689  0.2282404519220375
  0.5653034894691606  0.4323563761737069  0.5728647992688581
  0.2472097858038914  0.5574918054330307  0.5942101971784319
  0.5953217676256762  0.1343476823299987  0.5189441358232147
  0.4207321609189323  0.2066235176215205  0.3196316158846500
  0.3295266399585559  0.7174723964022959  0.7227321207145130
  0.5814007231967568  0.7098913165711017  0.4283022758164657
  0.5470374385708641  0.4200740052544371  0.2912066116124291
  0.3668239773272661  0.3440824300817069  0.7703540576090967
  0.1887229350798560  0.6796029273922328  0.2218340585423606
  0.1377341559330369  0.4874762379101586  0.5113479515745917
  0.5623466522490504  0.2347274709046533  0.3720050062785764
  0.7168385814243722  0.3692679959126370  0.1431860262020092
  0.1324250585288295  0.2575696699774633  0.7959211006852877
  0.6987758576974806  0.6184990297226446  0.7019080409521888
  0.0230128899379370  0.1755957045067153  0.2115543684342101
  0.1350984285411048  0.9586451715044005  0.5454056615582816
  0.9166988060006629  0.0934733049987447  0.6320207424864386
  0.5395264618500205  0.9613600140249897  0.1821901503186553
  0.0784123304634484  0.5206755071654692  0.9779356112600367
  0.3415889468294038  0.7733652011668339  0.4372322033816777
  0.2550546112824109  0.0990100779380320  0.6228695751147395
  0.8655711059676187  0.2359043346871840  0.4296540474189056
  0.8045651447897582  0.7872759478518886  0.5631768367836349
  0.0106531174649231  0.1220829257058706 -0.0089042885626602
  0.6768738472584845  0.0611253986254358  0.9595094195476539
  0.6930803405098421  0.9158106016294766  0.3122821093468333
  0.3802689116613837  0.8343917152957391  0.9091588986820720
  0.1577621953824976  0.0121566738363857  0.3053024496288357
  0.9063939329107189  0.7049623343272755  0.1414527811037656
  0.0777193387302949  0.7795080722157366  0.7413739402386504
  0.8391483873384452  0.4402965432347760  0.7443549588050544
  0.1710534655070954  0.3469804241433591  0.1186242038987440
  0.6276466624916665  0.5221614608607643  0.3909314913115565
  0.5281488021142556  0.2588992676039827  0.6610558537366590
  0.3888169056088026  0.3934266034058556  0.2765211676619681
  0.3799142856195306  0.5174926430503901  0.6747872709025280
 
  0.00000000E+00  0.00000000E+00  0.00000000E+00
  0.00000000E+00  0.00000000E+00  0.00000000E+00
  0.00000000E+00  0.00000000E+00  0.00000000E+00
  0.00000000E+00  0.00000000E+00  0.00000000E+00
  0.00000000E+00  0.00000000E+00  0.00000000E+00
  0.00000000E+00  0.00000000E+00  0.00000000E+00
  0.00000000E+00  0.00000000E+00  0.00000000E+00
  0.00000000E+00  0.00000000E+00  0.00000000E+00
  0.00000000E+00  0.00000000E+00  0.00000000E+00
  0.00000000E+00  0.00000000E+00  0.00000000E+00
  0.00000000E+00  0.00000000E+00  0.00000000E+00
  0.00000000E+00  0.00000000E+00  0.00000000E+00
  0.00000000E+00  0.00000000E+00  0.00000000E+00
  0.00000000E+00  0.00000000E+00  0.00000000E+00
  0.00000000E+00  0.00000000E+00  0.00000000E+00
  0.00000000E+00  0.00000000E+00  0.00000000E+00
  0.00000000E+00  0.00000000E+00  0.00000000E+00
  0.00000000E+00  0.00000000E+00  0.00000000E+00
  0.00000000E+00  0.00000000E+00  0.00000000E+00
  0.00000000E+00  0.00000000E+00  0.00000000E+00
  0.00000000E+00  0.00000000E+00  0.00000000E+00
  0.00000000E+00  0.00000000E+00  0.00000000E+00
  0.00000000E+00  0.00000000E+00  0.00000000E+00
  0.00000000E+00  0.00000000E+00  0.00000000E+00
  0.00000000E+00  0.00000000E+00  0.00000000E+00
  0.00000000E+00  0.00000000E+00  0.00000000E+00
  0.00000000E+00  0.00000000E+00  0.00000000E+00
  0.00000000E+00  0.00000000E+00  0.00000000E+00
  0.00000000E+00  0.00000000E+00  0.00000000E+00
  0.00000000E+00  0.00000000E+00  0.00000000E+00
  0.00000000E+00  0.00000000E+00  0.00000000E+00
  0.00000000E+00  0.00000000E+00  0.00000000E+00
  0.00000000E+00  0.00000000E+00  0.00000000E+00
  0.00000000E+00  0.00000000E+00  0.00000000E+00
  0.00000000E+00  0.00000000E+00  0.00000000E+00
  0.00000000E+00  0.00000000E+00  0.00000000E+00
  0.00000000E+00  0.00000000E+00  0.00000000E+00
  0.00000000E+00  0.00000000E+00  0.00000000E+00
  0.00000000E+00  0.00000000E+00  0.00000000E+00
  0.00000000E+00  0.00000000E+00  0.00000000E+00
  0.00000000E+00  0.00000000E+00  0.00000000E+00
  0.00000000E+00  0.00000000E+00  0.00000000E+00
  0.00000000E+00  0.00000000E+00  0.00000000E+00
  0.00000000E+00  0.00000000E+00  0.00000000E+00
  0.00000000E+00  0.00000000E+00  0.00000000E+00
  0.00000000E+00  0.00000000E+00  0.00000000E+00
  0.00000000E+00  0.00000000E+00  0.00000000E+00
  0.00000000E+00  0.00000000E+00  0.00000000E+00
