ref044                                  
   1.00000000000000     
     9.8375309445665433   -0.4457663580486499    0.2922279407176042
    -0.4758603653122315   10.5129269176593922   -0.3760193031731524
     0.3448583277952587   -0.3096622697186873   10.5123911239651999
   X   H   N    H   H    H
    12     12     8     5    10     1
Direct
  0.7908973583788532  0.9263700132010320  0.7529277707611484
  0.7015944849536757  0.9404428498194597  0.2192790631857002
  0.1150344096502308  0.0344660447918816  0.4528626893250868
  0.6661322725093777  0.3006769018881306  0.9087075831973120
  0.7165259109670700  0.7577703051155903  0.9228726784452460
  0.3393455545274500  0.7378721777709217  0.9263263699315877
  0.2861571480643991  0.1669016380098089  0.8414245510339163
  0.9252026372548374  0.7492554402699930  0.2644616295252729
  0.9189734235670514  0.7206635454159565  0.7005762082577514
  0.0339424661216019  0.2710623112251637  0.8402953868299998
  0.3102892321048404  0.4241223851490741  0.2019271785518729
  0.6576292699450003  0.5387321294877577  0.2073066827086253
  0.6873225019315145  0.5677415871984226  0.7379295935863646
  0.1967653284244272  0.4734490534237216  0.7556206996157645
  0.7777609869139914  0.1849933446921107  0.5349592574655093
  0.1726575402623810  0.3115479907704415  0.5244088796735381
  0.5617612397603335  0.7721058290932206  0.6931799195170870
  0.4344418156994423  0.7988919640006165  0.3019321026274736
  0.4805716852938309  0.2141452550826481  0.2868938785686294
  0.4089731926612812  0.3529888466441228  0.6483431945293139
  0.9527522087198348  0.9543783657052846  0.1155703510181459
  0.0628227460286424  0.5128747903843158  0.5491902573799190
  0.6402363984970938  0.0972740848352791  0.3677115040766646
  0.5364609800258365  0.3657808839443963  0.1131589441996151
  0.2150056953738906  0.2842174430753864  0.7109132369759521
  0.7377016957892798  0.7485526719354221  0.7452657334843972
  0.1042315125895297  0.1236129077839713  0.1880898541014812
  0.1722193172849151  0.6881235558259836  0.4435530996045778
  0.1550248416800852  0.1370240057421471  0.6592510912484744
  0.5071150725869561  0.0114881854485495  0.9883394198286255
  0.9830361943247703  0.5524946160036253  0.9733321605379242
  0.2254871006787554  0.6469552556184431  0.2323849310290742
  0.3546438160642379  0.7850272368851162  0.5344923443274989
  0.9354066957487889  0.1172010406994771  0.6909181934941562
  0.0019547064260015  0.8208610680018849  0.4699850877054259
  0.0012451626200225  0.2178013114921169  0.3608428431152555
  0.7002294148201802  0.0765258811357306  0.9316955269537631
  0.5306128179903450  0.8391523241876192  0.0720265796351258
  0.3989749760092611  0.9554010897314763  0.8300550573360479
  0.2827334256891400  0.0399582809457679  0.2628298379332786
  0.8330713091667595  0.6460956045515251  0.0777266317153206
  0.0970672758722953  0.6805931999639397  0.8628466825446448
  0.8789712056282568  0.4339787445304157  0.8422638691794333
  0.1767162646559773  0.2698856981278195  0.0432389090864238
  0.6654721832537418  0.7353984955100540  0.3271488402555992
  0.6311881423965449  0.3103368276211413  0.6772618219519397
  0.3808425829168769  0.3807186384020954  0.4170516591735139
  0.4247977581703752  0.5560880738609570  0.7906201087705204
 
  0.00000000E+00  0.00000000E+00  0.00000000E+00
  0.00000000E+00  0.00000000E+00  0.00000000E+00
  0.00000000E+00  0.00000000E+00  0.00000000E+00
  0.00000000E+00  0.00000000E+00  0.00000000E+00
  0.00000000E+00  0.00000000E+00  0.00000000E+00
  0.00000000E+00  0.00000000E+00  0.00000000E+00
  0.00000000E+00  0.00000000E+00  0.00000000E+00
  0.00000000E+00  0.00000000E+00  0.00000000E+00
  0.00000000E+00  0.00000000E+00  0.00000000E+00
  0.00000000E+00  0.00000000E+00  0.00000000E+00
  0.00000000E+00  0.00000000E+00  0.00000000E+00
  0.00000000E+00  0.00000000E+00  0.00000000E+00
  0.00000000E+00  0.00000000E+00  0.00000000E+00
  0.00000000E+00  0.00000000E+00  0.00000000E+00
  0.00000000E+00  0.00000000E+00  0.00000000E+00
  0.00000000E+00  0.00000000E+00  0.00000000E+00
  0.00000000E+00  0.00000000E+00  0.00000000E+00
  0.00000000E+00  0.00000000E+00  0.00000000E+00
  0.00000000E+00  0.00000000E+00  0.00000000E+00
  0.00000000E+00  0.00000000E+00  0.00000000E+00
  0.00000000E+00  0.00000000E+00  0.00000000E+00
  0.00000000E+00  0.00000000E+00  0.00000000E+00
  0.00000000E+00  0.00000000E+00  0.00000000E+00
  0.00000000E+00  0.00000000E+00  0.00000000E+00
  0.00000000E+00  0.00000000E+00  0.00000000E+00
  0.00000000E+00  0.00000000E+00  0.00000000E+00
  0.00000000E+00  0.00000000E+00  0.00000000E+00
  0.00000000E+00  0.00000000E+00  0.00000000E+00
  0.00000000E+00  0.00000000E+00  0.00000000E+00
  0.00000000E+00  0.00000000E+00  0.00000000E+00
  0.00000000E+00  0.00000000E+00  0.00000000E+00
  0.00000000E+00  0.00000000E+00  0.00000000E+00
  0.00000000E+00  0.00000000E+00  0.00000000E+00
  0.00000000E+00  0.00000000E+00  0.00000000E+00
  0.00000000E+00  0.00000000E+00  0.00000000E+00
  0.00000000E+00  0.00000000E+00  0.00000000E+00
  0.00000000E+00  0.00000000E+00  0.00000000E+00
  0.00000000E+00  0.00000000E+00  0.00000000E+00
  0.00000000E+00  0.00000000E+00  0.00000000E+00
  0.00000000E+00  0.00000000E+00  0.00000000E+00
  0.00000000E+00  0.00000000E+00  0.00000000E+00
  0.00000000E+00  0.00000000E+00  0.00000000E+00
  0.00000000E+00  0.00000000E+00  0.00000000E+00
  0.00000000E+00  0.00000000E+00  0.00000000E+00
  0.00000000E+00  0.00000000E+00  0.00000000E+00
  0.00000000E+00  0.00000000E+00  0.00000000E+00
  0.00000000E+00  0.00000000E+00  0.00000000E+00
  0.00000000E+00  0.00000000E+00  0.00000000E+00
